set S := 'S1' 'S2' 'S3' 'S4' 'S5' 'S6'; 
set P := 'P1' 'P2' 'P3' 'P4' 'P5' 'P6' 'P7' 'P8' 'P9' 'P10' 'P11' 'P12' 'P13' 'P14' 'P15' 'P16' 'P17' 'P18' 'P19' 'P20' 'P21' 'P22' 'P23' 'P24' 'P25' 'P26';
set A:= 'O' 'E' 'I' 'R';
param string:
	P1	P2	P3	P4	P5	P6	P7	P8	P9	P10	P11	P12	P13	P14	P15	P16	P17	P18	P19	P20	P21	P22	P23	P24	P25	P26:=
S1	9	18	15	15	5	9	9	15	18	18	15	18	9	5	18	5	15	18	9	15	18	18	15	15	18	15
S2	9	18	15	15	5	9	9	15	15	18	15	18	15	18	18	5	5	18	15	9	18	18	15	15	18	15
S3	9	18	15	15	5	9	15	15	18	18	15	18	5	5	15	9	5	15	15	5	18	18	15	15	18	15
S4	9	18	15	15	5	9	9	9	18	18	15	18	15	18	18	18	5	18	15	15	18	18	15	15	18	15
S5	9	18	15	15	5	9	18	9	15	18	15	18	15	15	18	5	18	15	18	5	15	18	18	15	18	15
S6	9	18	15	15	5	9	18	9	15	18	15	18	15	18	15	15	18	15	9	15	18	15	5	15	18	15	
